NAME : portcgen-28-24
COMMENT : portcgen N=28, seed=24
TYPE : TSP
DIMENSION : 28
EDGE_WEIGHT_TYPE : EUC_2D
NODE_COORD_SECTION
1 -175409 227517
2 228334 92842
3 -151451 44020
4 608218 -42654
5 -60482 55364
6 -66464 226747
7 22576 129469
8 128149 -51956
9 70492 210261
10 22177 213334
11 -107494 -363033
12 151954 -283256
13 -140064 -97473
14 154835 221045
15 -174523 -9376
16 -11972 96818
17 35143 273524
18 81717 -408817
19 253447 -14408
20 -30261 -8094
21 65406 -3258
22 -31055 -13034
23 -33925 318031
24 -76339 -213761
25 -7099 158425
26 -289536 -270815
27 -189666 -36266
28 -231039 102974
